Version identifier: 12.10.0.0 | 2019-11-26 | 843d4de
CPXPARAM_WorkMem                                 28672
Tried aggregator 2 times.
MIP Presolve modified 74 coefficients.
Aggregator did 45 substitutions.
Reduced MIP has 245 rows, 300 columns, and 1155 nonzeros.
Reduced MIP has 300 binaries, 0 generals, 0 SOSs, and 0 indicators.
Presolve time = 0,00 sec. (1,56 ticks)
Found incumbent of value 1345,000000 after 0,00 sec. (2,40 ticks)
Probing time = 0,00 sec. (0,45 ticks)
Tried aggregator 1 time.
Detecting symmetries...
MIP Presolve eliminated 55 rows and 0 columns.
MIP Presolve added 110 rows and 0 columns.
Reduced MIP has 300 rows, 300 columns, and 1210 nonzeros.
Reduced MIP has 300 binaries, 0 generals, 0 SOSs, and 0 indicators.
Presolve time = 0,00 sec. (1,47 ticks)
Probing time = 0,00 sec. (0,43 ticks)
Clique table members: 795.
MIP emphasis: balance optimality and feasibility.
MIP search method: dynamic search.
Parallel mode: deterministic, using up to 16 threads.
Root relaxation solution time = 0,00 sec. (1,93 ticks)

        Nodes                                         Cuts/
   Node  Left     Objective  IInf  Best Integer    Best Bound    ItCnt     Gap

*     0+    0                         1345,0000        0,0000           100,00%
*     0+    0                          628,0000        0,0000           100,00%
      0     0      288,4583   173      628,0000      288,4583      221   54,07%
      0     0      291,1349   173      628,0000     Cuts: 175      323   53,64%
      0     0      297,4470   173      628,0000     Cuts: 175      403   52,64%
      0     0      299,8938   173      628,0000     Cuts: 175      477   52,25%
      0     0      300,8371   173      628,0000     Cuts: 167      519   52,10%
      0     0      301,8707   173      628,0000      Cuts: 58      564   51,93%
      0     0      303,8943   173      628,0000     Cuts: 138      644   51,61%
      0     0      305,1881   173      628,0000     Cuts: 119      712   51,40%
      0     0      306,3363   173      628,0000     Cuts: 145      796   51,22%
      0     0      307,3356   173      628,0000     Cuts: 123      870   51,06%
*     0+    0                          571,0000      307,3356            46,18%
      0     0      308,4064   173      571,0000     Cuts: 155      975   41,32%
      0     0      308,7946   173      571,0000     Cuts: 105     1059   41,32%
      0     2      308,7946   300      571,0000      356,9306     1059   37,49%
Elapsed time = 0,30 sec. (170,57 ticks, tree = 0,02 MB, solutions = 3)
   4540  2930      546,2017   108      571,0000      450,0931   109730   21,17%

Performing restart 1

Repeating presolve.
Tried aggregator 1 time.
Reduced MIP has 300 rows, 300 columns, and 1210 nonzeros.
Reduced MIP has 300 binaries, 0 generals, 0 SOSs, and 0 indicators.
Presolve time = 0,00 sec. (0,72 ticks)
Tried aggregator 1 time.
Reduced MIP has 300 rows, 300 columns, and 1210 nonzeros.
Reduced MIP has 300 binaries, 0 generals, 0 SOSs, and 0 indicators.
Presolve time = 0,00 sec. (1,06 ticks)
Represolve time = 0,02 sec. (9,05 ticks)
   4617     0      320,3385   300      571,0000      Cuts: 87   125267   20,15%
   4617     0      324,2170   300      571,0000      Cuts: 92   125457   20,15%
   4617     0      326,3435   300      571,0000      Cuts: 60   125578   20,15%
   4617     0      327,3773   300      571,0000      Cuts: 94   125703   20,15%
   4617     0      327,9114   300      571,0000      Cuts: 83   125833   20,15%
   4617     0      328,4163   300      571,0000      Cuts: 70   125922   20,15%
   4617     2      328,4163   300      571,0000      455,9472   125922   20,15%
   4625     5      341,0969   291      571,0000      455,9472   127102   20,15%
   6126   933      529,0169   196      571,0000      455,9472   163213   20,15%
   7355  1895      387,4692   278      571,0000      455,9472   205135   20,15%
   8963  3184      452,5353   245      571,0000      455,9472   270627   20,15%
  10579  4623      540,6464   117      571,0000      455,9472   332843   20,15%

Performing restart 2

Repeating presolve.
Tried aggregator 1 time.
Reduced MIP has 300 rows, 300 columns, and 1210 nonzeros.
Reduced MIP has 300 binaries, 0 generals, 0 SOSs, and 0 indicators.
Presolve time = 0,00 sec. (0,72 ticks)
Tried aggregator 1 time.
Reduced MIP has 300 rows, 300 columns, and 1210 nonzeros.
Reduced MIP has 300 binaries, 0 generals, 0 SOSs, and 0 indicators.
Presolve time = 0,00 sec. (1,06 ticks)
Represolve time = 0,03 sec. (17,27 ticks)
  10702     0      329,1130   300      571,0000      Cuts: 25   352416   20,15%
  10702     0      329,3339   300      571,0000      Cuts: 21   352488   20,15%
  10702     0      329,5747   300      571,0000      Cuts: 50   352593   20,15%
  10702     0      329,9057   300      571,0000      Cuts: 44   352692   20,15%
  10702     0      330,2699   300      571,0000      Cuts: 53   352768   20,15%
  10702     0      330,9054   300      571,0000      Cuts: 67   352894   20,15%
  10702     0      331,2034   300      571,0000      Cuts: 55   352995   20,15%
  10702     2      331,2034   300      571,0000      455,9472   352995   20,15%
  12128   849        cutoff            571,0000      455,9472   404348   20,15%

Clique cuts applied:  20
Cover cuts applied:  363
Flow cuts applied:  3
Mixed integer rounding cuts applied:  152
Zero-half cuts applied:  95
Lift and project cuts applied:  18
Gomory fractional cuts applied:  17

Root node processing (before b&c):
  Real time             =    0,27 sec. (170,10 ticks)
Parallel b&c, 16 threads:
  Real time             =    4,68 sec. (3741,05 ticks)
  Sync time (average)   =    1,19 sec.
  Wait time (average)   =    0,01 sec.
                          ------------
Total (root+branch&cut) =    4,95 sec. (3911,15 ticks)
